
List of user-set options:

                                    Name   Value                used
                           compl_inf_tol = 1                     yes
                         constr_viol_tol = 1                     yes
                            dual_inf_tol = 1000                  yes
                           linear_solver = ma97                  yes
                              ma86_small = 1e-30                  no
                                  ma86_u = 0.0001                 no
                              ma97_order = best                  yes
                              ma97_small = 1e-30                 yes
                            ma97_switch1 = at_start              yes
                            ma97_switch2 = od_hd_reuse           yes
                                  ma97_u = 1e-06                 yes
                               ma97_umax = 0.5                   yes
                                max_iter = 1000                  yes
                    max_refinement_steps = 20                    yes
                    min_refinement_steps = 5                     yes
                                 mu_init = 1e-06                 yes
           mu_superlinear_decrease_power = 1.25                  yes
                   nlp_scaling_min_value = 1e-08                 yes
                        option_file_name = Preset_Case_877_pf.opt  yes
                             output_file = ./tmp/Preset_Case_877_pf.output  yes
                      print_user_options = yes                   yes
        required_infeasibility_reduction = 1                      no
                                     tol = 1e-08                 yes
                   warm_start_bound_frac = 1e-20                 yes
                   warm_start_bound_push = 1e-20                 yes
                   warm_start_init_point = yes                   yes
              warm_start_mult_bound_push = 1e-20                 yes
                warm_start_mult_init_max = 1e+40                 yes
             warm_start_slack_bound_frac = 1e-20                 yes
             warm_start_slack_bound_push = 1e-20                 yes

******************************************************************************
This program contains Ipopt, a library for large-scale nonlinear optimization.
 Ipopt is released as open source code under the Eclipse Public License (EPL).
         For more information visit http://projects.coin-or.org/Ipopt
******************************************************************************

This is Ipopt version 3.12.10, running with linear solver ma97.

Number of nonzeros in equality constraint Jacobian...:   123443
Number of nonzeros in inequality constraint Jacobian.:      213
Number of nonzeros in Lagrangian Hessian.............:    49069

Total number of variables............................:    31591
                     variables with only lower bounds:    12912
                variables with lower and upper bounds:    15130
                     variables with only upper bounds:        0
Total number of equality constraints.................:    31483
Total number of inequality constraints...............:       25
        inequality constraints with only lower bounds:        4
   inequality constraints with lower and upper bounds:        0
        inequality constraints with only upper bounds:       21

iter    objective    inf_pr   inf_du lg(mu)  ||d||  lg(rg) alpha_du alpha_pr  ls
   0 -5.3933399e+00 4.00e-03 1.02e+00  -6.0 0.00e+00    -  0.00e+00 0.00e+00   0
   1 -5.4003658e+00 8.61e+00 3.36e+01  -6.0 4.04e+05    -  7.86e-05 1.12e-03h  1
   2 -5.4003266e+00 8.61e+00 3.36e+01  -6.0 2.47e+03    -  1.06e-04 3.34e-05h  1
   3 -5.3942279e+00 8.59e+00 1.51e+02  -6.0 1.80e+04    -  9.62e-05 2.30e-03h  2
   4 -5.3931004e+00 8.58e+00 1.69e+02  -6.0 4.07e+03    -  2.38e-01 9.95e-04h  3
   5 -5.3928022e+00 8.58e+00 1.69e+02  -6.0 1.46e+03    -  1.36e-03 2.09e-04h  8
   6 -5.3926494e+00 8.58e+00 1.69e+02  -6.0 3.98e+03    -  4.71e-03 1.35e-04h 12
   7 -5.3904613e+00 8.56e+00 1.49e+02  -6.0 3.98e+03    -  1.94e-03 1.94e-03s 21
   8r-5.3904613e+00 8.56e+00 9.99e+02   0.9 0.00e+00    -  0.00e+00 0.00e+00R  1
   9r-5.3975540e+00 8.56e+00 2.23e+03   0.9 4.67e+04    -  2.72e-07 6.27e-08f  1
iter    objective    inf_pr   inf_du lg(mu)  ||d||  lg(rg) alpha_du alpha_pr  ls
  10 -5.4159311e+00 8.55e+00 3.74e+03  -6.0 2.50e+05    -  5.08e-06 1.44e-03h  1
  11 -5.4182544e+00 8.52e+00 4.08e+03  -6.0 1.46e+05    -  6.23e-06 3.93e-03h  1
  12 -5.4214760e+00 1.89e+01 6.03e+04  -6.0 3.68e+04    -  1.46e-02 5.67e-02h  1
  13 -5.4573307e+00 1.96e+01 6.62e+04  -6.0 4.60e+04    -  6.99e-03 9.13e-03h  1
  14 -5.4782076e+00 1.98e+01 6.84e+04  -6.0 3.49e+04    -  1.29e-02 8.10e-03h  1
  15 -5.4698248e+00 1.96e+01 6.73e+04  -6.0 5.33e+02  -4.0 1.29e-04 8.36e-03h  1
  16 -5.4689673e+00 1.96e+01 6.73e+04  -6.0 5.26e+02  -4.5 4.86e-02 8.84e-04h  1
  17 -5.4425025e+00 1.91e+01 6.03e+04  -6.0 5.32e+02  -5.0 1.05e-02 2.80e-02h  3
  18 -5.4299288e+00 1.87e+01 5.79e+04  -6.0 5.39e+02  -5.4 1.17e-01 1.65e-02h  5
  19 -5.4200851e+00 1.82e+01 5.65e+04  -6.0 6.35e+02  -5.9 3.09e-02 2.68e-02h  1
iter    objective    inf_pr   inf_du lg(mu)  ||d||  lg(rg) alpha_du alpha_pr  ls
  20 -5.4188174e+00 1.79e+01 5.94e+04  -6.0 1.03e+03  -6.4 1.30e-01 2.08e-02h  4
  21 -5.4388369e+00 1.71e+01 1.33e+05  -6.0 1.97e+03  -6.9 1.62e-01 4.13e-02h  1
  22 -5.4223338e+00 1.59e+01 1.52e+05  -6.0 1.03e+03  -7.3 4.43e-02 7.08e-02h  1
  23 -5.4219912e+00 1.58e+01 1.50e+05  -6.0 1.83e+03  -7.8 8.21e-02 4.32e-03h  1
  24 -5.4203991e+00 1.56e+01 1.47e+05  -6.0 1.87e+03  -8.3 1.66e-01 1.33e-02h  3
  25 -5.4285687e+00 1.49e+01 1.33e+05  -6.0 9.19e+03  -8.8 7.18e-03 4.66e-02h  2
  26 -5.4280461e+00 1.44e+01 1.21e+05  -6.0 2.26e+03  -8.3 1.36e-02 3.52e-02h  1
  27 -5.4338548e+00 1.40e+01 2.80e+04  -6.0 6.33e+03  -8.8 7.65e-05 1.01e-01h  1
  28 -5.4348894e+00 1.39e+01 2.80e+04  -6.0 1.03e+04    -  3.84e-05 5.20e-03h  1
  29 -5.4341050e+00 1.39e+01 2.80e+04  -6.0 7.92e+04  -5.7 7.37e-11 3.38e-05h  1
iter    objective    inf_pr   inf_du lg(mu)  ||d||  lg(rg) alpha_du alpha_pr  ls
  30 -5.4348552e+00 1.39e+01 2.80e+04  -6.0 1.35e+04  -6.2 1.74e-04 1.52e-04f  1
  31 -5.4348833e+00 1.39e+01 2.80e+04  -6.0 4.85e+06    -  1.53e-10 7.13e-07f  1
  32 -5.4348799e+00 1.39e+01 2.80e+04  -6.0 3.52e+04    -  4.73e-07 3.12e-05h  1
  33 -5.4348933e+00 1.39e+01 2.80e+04  -6.0 4.43e+04    -  1.21e-06 2.66e-05f  1
  34 -5.4348954e+00 1.39e+01 2.80e+04  -6.0 1.03e+04    -  6.78e-06 2.72e-05f  1
  35 -5.4349015e+00 1.39e+01 2.80e+04  -6.0 1.64e+04    -  1.56e-05 2.26e-05f  1
  36 -5.4428703e+00 1.45e+01 4.79e+04  -6.0 7.55e+03    -  6.77e-03 5.91e-02f  1
  37 -5.4427378e+00 1.44e+01 4.82e+04  -6.0 5.57e+02  -6.6 3.27e-02 7.66e-03h  1
  38 -5.4842467e+00 8.27e+01 2.41e+09  -6.0 1.06e+04    -  1.28e-01 2.52e-01H  1
  39 -5.4893686e+00 7.99e+01 2.32e+09  -6.0 3.45e+03    -  1.39e-01 3.72e-02h  1
iter    objective    inf_pr   inf_du lg(mu)  ||d||  lg(rg) alpha_du alpha_pr  ls
  40 -5.4934415e+00 7.75e+01 2.25e+09  -6.0 1.06e+03    -  5.72e-02 3.02e-02h  1
  41 -5.5077784e+00 7.01e+01 2.02e+09  -6.0 1.63e+03    -  2.93e-03 1.02e-01h  1
  42 -5.5142034e+00 6.73e+01 1.94e+09  -6.0 1.33e+03    -  1.31e-01 4.05e-02h  1
  43 -5.5373822e+00 5.83e+01 1.67e+09  -6.0 1.41e+03    -  2.40e-01 1.40e-01h  1
  44 -5.5674706e+00 4.79e+01 1.37e+09  -6.0 1.74e+03    -  6.67e-02 1.78e-01h  1
  45 -5.6408643e+00 3.69e+01 1.06e+09  -6.0 1.23e+03    -  4.72e-03 2.31e-01h  1
  46 -5.6742942e+00 2.80e+01 8.00e+08  -6.0 3.60e+02  -7.1 1.02e-01 2.42e-01h  1
  47 -5.7174950e+00 2.31e+01 6.62e+08  -6.0 6.36e+02  -7.6 8.53e-02 1.73e-01h  1
  48 -5.8481716e+00 5.15e+00 1.47e+08  -6.0 1.90e+02  -7.2 4.58e-01 7.77e-01h  1
  49 -5.8582270e+00 4.05e+00 1.52e+08  -6.0 4.96e+02  -7.6 1.46e-01 2.16e-01h  1
iter    objective    inf_pr   inf_du lg(mu)  ||d||  lg(rg) alpha_du alpha_pr  ls
  50 -5.9065249e+00 2.05e+00 2.07e+09  -6.0 3.51e+02  -8.1 3.63e-01 1.00e+00h  1
  51 -5.9034816e+00 2.33e+00 1.78e+09  -6.0 1.43e+03    -  6.27e-02 1.27e-01h  1
  52 -5.9025676e+00 2.31e+00 1.64e+09  -6.0 1.24e+03    -  1.74e-02 8.29e-02h  4
  53 -5.9013689e+00 2.27e+00 1.44e+09  -6.0 1.23e+03    -  1.08e-01 1.24e-01h  3
  54 -5.8949852e+00 3.21e+00 7.56e+08  -6.0 1.10e+03    -  1.30e-01 5.55e-01H  1
  55 -5.8948487e+00 3.20e+00 6.98e+08  -6.0 1.59e+03    -  2.40e-01 7.72e-02h  2
  56 -5.8947292e+00 3.23e+00 6.48e+08  -6.0 1.82e+03    -  3.07e-02 7.18e-02h  1
  57 -5.8910908e+00 2.21e+00 2.13e+08  -6.0 5.43e+02    -  1.65e-03 7.11e-01H  1
  58 -5.8961586e+00 8.28e-01 3.22e+07  -6.0 2.34e+02    -  4.77e-01 8.49e-01h  1
  59 -5.8958066e+00 5.50e-01 2.14e+07  -6.0 8.20e-01  -3.2 2.09e-01 3.35e-01h  1
iter    objective    inf_pr   inf_du lg(mu)  ||d||  lg(rg) alpha_du alpha_pr  ls
  60 -5.9141349e+00 4.30e+00 8.26e+06  -6.0 8.22e+02    -  3.24e-01 6.10e-01h  1
  61 -5.9050926e+00 2.79e+00 3.17e+06  -6.0 4.22e+02    -  7.71e-01 6.19e-01h  1
  62 -5.9150318e+00 9.98e-01 4.05e+05  -6.0 2.17e+02    -  1.00e+00 8.57e-01h  1
  63 -5.9208849e+00 2.68e-01 3.79e+04  -6.0 8.07e+01    -  1.00e+00 1.00e+00h  1
  64 -5.9255470e+00 1.92e-01 5.40e+03  -6.0 7.45e+01    -  1.00e+00 7.06e-01h  1
  65 -5.9310445e+00 2.26e-01 3.03e+03  -6.0 7.45e+01    -  1.00e+00 1.00e+00h  1
  66 -5.9343395e+00 3.46e-01 8.20e+04  -6.0 9.48e+01    -  1.00e+00 4.17e-01h  1
  67 -5.9387219e+00 5.71e-01 1.48e+05  -6.0 1.19e+02    -  1.00e+00 5.05e-01h  1
  68 -5.9441342e+00 3.28e-01 2.72e+05  -6.0 1.38e+02    -  1.00e+00 4.27e-01h  1
  69r-5.9441342e+00 3.28e-01 1.00e+03  -0.5 0.00e+00    -  0.00e+00 3.49e-07R  2
iter    objective    inf_pr   inf_du lg(mu)  ||d||  lg(rg) alpha_du alpha_pr  ls
  70r-5.9520265e+00 3.27e-01 1.00e+03  -0.5 1.16e+04    -  1.35e-05 3.96e-06f  1
  71 -5.9498574e+00 2.51e-01 1.83e+05  -6.0 8.79e+00    -  3.44e-01 2.31e-01h  1
  72 -5.9480362e+00 1.88e-01 1.92e+05  -6.0 4.17e+00    -  2.31e-01 2.54e-01h  1
  73 -5.9428339e+00 4.18e-04 5.58e+01  -6.0 3.09e+00    -  6.78e-01 1.00e+00h  1
  74 -5.9431644e+00 2.60e-05 3.35e+00  -6.0 6.51e-01    -  9.89e-01 1.00e+00h  1
  75 -5.9501168e+00 8.45e-02 3.50e+01  -6.0 4.59e+01    -  7.43e-01 1.00e+00h  1
  76 -5.9506528e+00 9.61e-02 4.30e+02  -6.0 6.36e+01    -  9.44e-01 6.64e-01H  1
  77 -5.9561518e+00 2.95e-01 1.29e+03  -6.0 2.75e+02    -  6.13e-01 4.94e-01H  1
  78 -5.9608101e+00 1.34e+00 9.88e+02  -6.0 8.30e+02    -  5.13e-01 2.31e-01h  1
  79 -5.9664123e+00 2.29e-01 2.23e+03  -6.0 7.76e+01    -  6.66e-01 9.60e-01h  1
iter    objective    inf_pr   inf_du lg(mu)  ||d||  lg(rg) alpha_du alpha_pr  ls
  80 -5.9663770e+00 2.17e-01 2.11e+04  -6.0 6.10e+01  -3.7 8.00e-04 5.66e-02h  1
  81 -5.9690101e+00 8.33e-04 3.02e+02  -6.0 1.88e+00  -4.1 9.44e-01 1.00e+00h  1
  82 -5.9689720e+00 8.78e-06 1.01e-01  -6.0 4.52e-01  -4.6 1.00e+00 1.00e+00h  1
  83 -5.9690311e+00 8.30e-05 3.53e-03  -6.0 1.39e+00  -5.1 1.00e+00 1.00e+00h  1
  84 -5.9692041e+00 6.12e-04 2.72e-02  -6.0 3.77e+00  -5.6 1.00e+00 1.00e+00h  1
  85 -5.9696715e+00 3.43e-03 1.44e-01  -6.0 1.04e+01  -6.0 1.00e+00 1.00e+00h  1
  86 -5.9698259e+00 4.83e-04 1.56e-02  -6.0 4.05e+00  -5.6 1.00e+00 1.00e+00h  1
  87 -5.9702933e+00 4.95e-03 1.17e+00  -6.0 1.30e+01  -6.1 6.49e-01 1.00e+00h  1
  88 -5.9704628e+00 7.27e-04 1.42e-01  -6.0 4.98e+00  -5.7 1.00e+00 1.00e+00h  1
  89 -5.9709360e+00 7.21e-03 1.58e+01  -6.0 1.57e+01  -6.1 2.75e-01 1.00e+00h  1
iter    objective    inf_pr   inf_du lg(mu)  ||d||  lg(rg) alpha_du alpha_pr  ls
  90 -5.9726998e+00 7.74e-02 1.82e+01  -6.0 5.13e+01  -6.6 1.00e+00 1.00e+00h  1
  91 -5.9734309e+00 1.17e-02 5.47e+00  -6.0 2.01e+01  -6.2 1.00e+00 1.00e+00h  1
  92 -5.9757993e+00 1.27e-01 2.84e+00  -6.0 6.59e+01  -6.7 1.00e+00 1.00e+00h  1
  93 -5.9851689e+00 1.35e+00 2.46e+02  -6.0 2.72e+02  -7.2 3.64e-01 7.85e-01h  1
  94 -5.9955121e+00 4.98e+00 6.64e+04  -6.0 5.23e+02  -7.6 3.45e-01 1.00e+00h  1
  95 -5.9943957e+00 1.63e-01 2.20e+04  -6.0 8.75e+01  -6.3 2.43e-01 1.00e+00h  1
  96 -5.9977802e+00 1.43e-01 2.86e+03  -6.0 1.01e+02  -6.8 1.00e+00 5.14e-01h  1
  97 -6.0076694e+00 1.08e+00 5.56e+03  -6.0 5.09e+02  -7.3 5.64e-01 3.64e-01h  1
  98 -6.0275684e+00 6.42e+00 9.01e+04  -6.0 3.25e+03    -  1.09e-01 5.21e-01h  1
  99 -6.0250235e+00 5.11e-02 4.62e+02  -6.0 4.30e+01  -5.9 7.07e-01 1.00e+00h  1
iter    objective    inf_pr   inf_du lg(mu)  ||d||  lg(rg) alpha_du alpha_pr  ls
 100 -6.0280222e+00 7.85e-02 1.10e+00  -6.0 5.27e+01  -6.4 1.00e+00 1.00e+00h  1
 101 -6.0384585e+00 8.64e-01 4.45e+00  -6.0 1.75e+02  -6.9 1.00e+00 1.00e+00h  1
 102 -6.0471809e+00 1.21e+00 6.35e+00  -6.0 1.05e+03    -  1.25e-01 1.20e-01h  1
 103 -6.0462732e+00 6.45e-02 1.98e+02  -6.0 7.05e+01  -7.4 3.47e-01 9.67e-01h  1
 104 -6.0502197e+00 6.06e-01 8.52e+01  -6.0 1.21e+02  -6.9 1.00e+00 6.92e-01h  1
 105 -6.0492999e+00 2.61e-01 2.85e+01  -6.0 5.66e+01  -7.4 8.05e-01 6.78e-01h  1
 106 -6.0518213e+00 3.79e-01 1.81e+00  -6.0 4.79e+01  -6.1 1.00e+00 1.00e+00h  1
 107 -6.0537541e+00 1.33e-01 6.95e+00  -6.0 6.45e+01  -6.6 3.42e-01 1.00e+00h  1
 108 -6.0529268e+00 3.30e-02 5.01e-01  -6.0 3.23e+01  -7.0 1.00e+00 1.00e+00h  1
 109 -6.0529814e+00 3.25e-02 1.19e+02  -6.0 8.95e+02    -  1.00e+00 1.72e-02h  1
iter    objective    inf_pr   inf_du lg(mu)  ||d||  lg(rg) alpha_du alpha_pr  ls
 110 -6.0552087e+00 5.14e+00 6.95e+01  -6.0 5.51e+02    -  1.00e+00 1.00e+00h  1
 111 -6.0539268e+00 2.14e-03 3.42e-01  -6.0 3.93e+01    -  1.00e+00 1.00e+00h  1
 112 -6.0539235e+00 3.67e-05 8.32e-04  -6.0 1.45e+00    -  1.00e+00 1.00e+00h  1
 113 -6.0539234e+00 1.46e-10 3.53e-10  -6.0 7.16e-04    -  1.00e+00 1.00e+00h  1
 114 -6.0540007e+00 1.59e-01 4.71e+01  -7.5 1.23e+02    -  9.44e-01 7.81e-01h  1
 115 -6.0540020e+00 2.88e-02 8.79e+00  -7.5 2.73e+01    -  1.00e+00 8.84e-01h  1
 116 -6.0540012e+00 1.43e-04 2.23e-03  -7.5 2.83e+00    -  1.00e+00 1.00e+00h  1
 117 -6.0540012e+00 4.40e-10 4.89e-10  -7.5 5.08e-03    -  1.00e+00 1.00e+00h  1
 118 -6.0540027e+00 1.90e-04 7.26e-01  -9.0 3.89e+00    -  9.26e-01 8.47e-01h  1
 119 -6.0540029e+00 6.23e-06 3.82e-01  -9.0 5.96e-01    -  9.06e-01 1.00e+00f  1
iter    objective    inf_pr   inf_du lg(mu)  ||d||  lg(rg) alpha_du alpha_pr  ls
 120 -6.0540029e+00 1.92e-10 4.53e-09  -9.0 1.99e-04    -  1.00e+00 1.00e+00h  1

Number of Iterations....: 120

                                   (scaled)                 (unscaled)
Objective...............:  -4.7296897753727789e+00   -6.0540029124771566e+00
Dual infeasibility......:   4.5289204283626152e-09    5.7970181483041479e-09
Constraint violation....:   1.9212421692622883e-10    1.9212421692622883e-10
Complementarity.........:   1.2456950579505997e-09    1.5944896741767676e-09
Overall NLP error.......:   4.5289204283626152e-09    5.7970181483041479e-09


Number of objective function evaluations             = 201
Number of objective gradient evaluations             = 121
Number of equality constraint evaluations            = 201
Number of inequality constraint evaluations          = 201
Number of equality constraint Jacobian evaluations   = 123
Number of inequality constraint Jacobian evaluations = 123
Number of Lagrangian Hessian evaluations             = 120
Total CPU secs in IPOPT (w/o function evaluations)   =    313.557
Total CPU secs in NLP function evaluations           =      4.984

EXIT: Optimal Solution Found.
